PROBLEM NAME: eil51_n6
KNAPSACK DATA TYPE: multiple strongly correlated
DIMENSION: 6
NUMBER OF ITEMS: 5
CAPACITY OF KNAPSACK: 992
MIN SPEED: 0.1
MAX SPEED: 1
RENTING RATIO: 2.64
EDGE_WEIGHT_TYPE: CEIL_2D
NODE_COORD_SECTION	(INDEX, X, Y):
1	31	62
2	52	41
3	27	23
4	57	58
5	62	42
6	43	67
ITEMS SECTION	(INDEX, PROFIT, WEIGHT, ASSIGNED NODE NUMBER):
1	1192	992	6
2	849	649	4
3	706	506	5
4	616	416	2
5	294	94	3
